min: c;

c = 3.25928813119766 * u5_t4_h2 + 3.25928813119766 * u5_t7_h2 + 3.21341365233353 * u5_t4_h3 + 3.21341365233353 * u5_t7_h3 + 3.005477626076 * u5_t1_h4 + 3.005477626076 * u5_t3_h4 + 3.005477626076 * u5_t4_h4 + 3.005477626076 * u5_t7_h4 + 4.09316373943752 * u5_t1_h5 + 4.09316373943752 * u5_t3_h5 + 4.09316373943752 * u5_t4_h5 + 4.09316373943752 * u5_t7_h5 + 4.14162461139402 * u5_t1_h6 + 4.14162461139402 * u5_t3_h6 + 4.14162461139402 * u5_t4_h6 + 4.14162461139402 * u5_t6_h6 + 4.14162461139402 * u5_t7_h6 + 3.73405060989698 * u5_t1_h7 + 3.73405060989698 * u5_t3_h7 + 3.73405060989698 * u5_t4_h7 + 3.73405060989698 * u5_t6_h7 + 5.82650205473827 * u5_t1_h8 + 5.82650205473827 * u5_t3_h8 + 5.82650205473827 * u5_t4_h8 + 5.82650205473827 * u5_t6_h8 + 5.0384532544181 * u5_t1_h9 + 5.0384532544181 * u5_t3_h9 + 5.0384532544181 * u5_t4_h9 + 5.0384532544181 * u5_t6_h9 + 5.87340315654914 * u5_t1_h10 + 5.87340315654914 * u5_t3_h10 + 5.87340315654914 * u5_t4_h10 + 5.87340315654914 * u5_t6_h10 + 4.27928250909636 * u5_t1_h11 + 4.27928250909636 * u5_t3_h11 + 4.27928250909636 * u5_t4_h11 + 4.27928250909636 * u5_t6_h11 + 6.1667752484635 * u5_t1_h12 + 6.1667752484635 * u5_t3_h12 + 6.1667752484635 * u5_t4_h12 + 6.1667752484635 * u5_t6_h12 + 4.32707974294564 * u5_t1_h13 + 4.32707974294564 * u5_t3_h13 + 4.32707974294564 * u5_t4_h13 + 4.32707974294564 * u5_t6_h13 + 4.32707974294564 * u5_t8_h13 + 4.99974821869094 * u5_t1_h14 + 4.99974821869094 * u5_t3_h14 + 4.99974821869094 * u5_t4_h14 + 4.99974821869094 * u5_t6_h14 + 4.99974821869094 * u5_t8_h14 + 6.5887521382915 * u5_t1_h15 + 6.5887521382915 * u5_t3_h15 + 6.5887521382915 * u5_t4_h15 + 6.5887521382915 * u5_t6_h15 + 6.5887521382915 * u5_t8_h15 + 6.5887521382915 * u5_t9_h15 + 5.65531439961598 * u5_t1_h16 + 5.65531439961598 * u5_t3_h16 + 5.65531439961598 * u5_t4_h16 + 5.65531439961598 * u5_t5_h16 + 5.65531439961598 * u5_t6_h16 + 5.65531439961598 * u5_t8_h16 + 5.65531439961598 * u5_t9_h16 + 6.81046507922116 * u5_t1_h17 + 6.81046507922116 * u5_t5_h17 + 6.81046507922116 * u5_t6_h17 + 6.81046507922116 * u5_t8_h17 + 6.81046507922116 * u5_t9_h17 + 6.81046507922116 * u5_t10_h17 + 6.78229254415029 * u5_t1_h18 + 6.78229254415029 * u5_t2_h18 + 6.78229254415029 * u5_t5_h18 + 6.78229254415029 * u5_t6_h18 + 6.78229254415029 * u5_t9_h18 + 6.78229254415029 * u5_t10_h18 + 5.96641193547393 * u5_t1_h19 + 5.96641193547393 * u5_t2_h19 + 5.96641193547393 * u5_t5_h19 + 5.96641193547393 * u5_t9_h19 + 5.96641193547393 * u5_t10_h19 + 5.47445557358605 * u5_t1_h20 + 5.47445557358605 * u5_t2_h20 + 5.47445557358605 * u5_t5_h20 + 5.47445557358605 * u5_t9_h20 + 5.47445557358605 * u5_t10_h20 + 5.54465447505894 * u5_t2_h21 + 5.54465447505894 * u5_t5_h21 + 5.54465447505894 * u5_t9_h21 + 5.54465447505894 * u5_t10_h21 + 5.4102935432139 * u5_t2_h22 + 5.4102935432139 * u5_t5_h22 + 5.4102935432139 * u5_t9_h22 + 5.4102935432139 * u5_t10_h22 + 4.98423601409188 * u5_t5_h23 + 4.98423601409188 * u5_t9_h23 + 4.98423601409188 * u5_t10_h23;
0 <= u5_t1_h4 <= 1;
0 <= u5_t1_h5 <= 1;
0 <= u5_t1_h6 <= 1;
0 <= u5_t1_h7 <= 1;
0 <= u5_t1_h8 <= 1;
0 <= u5_t1_h9 <= 1;
0 <= u5_t1_h10 <= 1;
0 <= u5_t1_h11 <= 1;
0 <= u5_t1_h12 <= 1;
0 <= u5_t1_h13 <= 1;
0 <= u5_t1_h14 <= 1;
0 <= u5_t1_h15 <= 1;
0 <= u5_t1_h16 <= 1;
0 <= u5_t1_h17 <= 1;
0 <= u5_t1_h18 <= 1;
0 <= u5_t1_h19 <= 1;
0 <= u5_t1_h20 <= 1;
u5_t1_h4 + u5_t1_h5 + u5_t1_h6 + u5_t1_h7 + u5_t1_h8 + u5_t1_h9 + u5_t1_h10 + u5_t1_h11 + u5_t1_h12 + u5_t1_h13 + u5_t1_h14 + u5_t1_h15 + u5_t1_h16 + u5_t1_h17 + u5_t1_h18 + u5_t1_h19 + u5_t1_h20 = 1;
0 <= u5_t2_h18 <= 1;
0 <= u5_t2_h19 <= 1;
0 <= u5_t2_h20 <= 1;
0 <= u5_t2_h21 <= 1;
0 <= u5_t2_h22 <= 1;
u5_t2_h18 + u5_t2_h19 + u5_t2_h20 + u5_t2_h21 + u5_t2_h22 = 3;
0 <= u5_t3_h4 <= 1;
0 <= u5_t3_h5 <= 1;
0 <= u5_t3_h6 <= 1;
0 <= u5_t3_h7 <= 1;
0 <= u5_t3_h8 <= 1;
0 <= u5_t3_h9 <= 1;
0 <= u5_t3_h10 <= 1;
0 <= u5_t3_h11 <= 1;
0 <= u5_t3_h12 <= 1;
0 <= u5_t3_h13 <= 1;
0 <= u5_t3_h14 <= 1;
0 <= u5_t3_h15 <= 1;
0 <= u5_t3_h16 <= 1;
u5_t3_h4 + u5_t3_h5 + u5_t3_h6 + u5_t3_h7 + u5_t3_h8 + u5_t3_h9 + u5_t3_h10 + u5_t3_h11 + u5_t3_h12 + u5_t3_h13 + u5_t3_h14 + u5_t3_h15 + u5_t3_h16 = 1;
0 <= u5_t4_h2 <= 1;
0 <= u5_t4_h3 <= 1;
0 <= u5_t4_h4 <= 1;
0 <= u5_t4_h5 <= 1;
0 <= u5_t4_h6 <= 1;
0 <= u5_t4_h7 <= 1;
0 <= u5_t4_h8 <= 1;
0 <= u5_t4_h9 <= 1;
0 <= u5_t4_h10 <= 1;
0 <= u5_t4_h11 <= 1;
0 <= u5_t4_h12 <= 1;
0 <= u5_t4_h13 <= 1;
0 <= u5_t4_h14 <= 1;
0 <= u5_t4_h15 <= 1;
0 <= u5_t4_h16 <= 1;
u5_t4_h2 + u5_t4_h3 + u5_t4_h4 + u5_t4_h5 + u5_t4_h6 + u5_t4_h7 + u5_t4_h8 + u5_t4_h9 + u5_t4_h10 + u5_t4_h11 + u5_t4_h12 + u5_t4_h13 + u5_t4_h14 + u5_t4_h15 + u5_t4_h16 = 3;
0 <= u5_t5_h16 <= 1;
0 <= u5_t5_h17 <= 1;
0 <= u5_t5_h18 <= 1;
0 <= u5_t5_h19 <= 1;
0 <= u5_t5_h20 <= 1;
0 <= u5_t5_h21 <= 1;
0 <= u5_t5_h22 <= 1;
0 <= u5_t5_h23 <= 1;
u5_t5_h16 + u5_t5_h17 + u5_t5_h18 + u5_t5_h19 + u5_t5_h20 + u5_t5_h21 + u5_t5_h22 + u5_t5_h23 = 2;
0 <= u5_t6_h6 <= 1;
0 <= u5_t6_h7 <= 1;
0 <= u5_t6_h8 <= 1;
0 <= u5_t6_h9 <= 1;
0 <= u5_t6_h10 <= 1;
0 <= u5_t6_h11 <= 1;
0 <= u5_t6_h12 <= 1;
0 <= u5_t6_h13 <= 1;
0 <= u5_t6_h14 <= 1;
0 <= u5_t6_h15 <= 1;
0 <= u5_t6_h16 <= 1;
0 <= u5_t6_h17 <= 1;
0 <= u5_t6_h18 <= 1;
u5_t6_h6 + u5_t6_h7 + u5_t6_h8 + u5_t6_h9 + u5_t6_h10 + u5_t6_h11 + u5_t6_h12 + u5_t6_h13 + u5_t6_h14 + u5_t6_h15 + u5_t6_h16 + u5_t6_h17 + u5_t6_h18 = 2;
0 <= u5_t7_h2 <= 1;
0 <= u5_t7_h3 <= 1;
0 <= u5_t7_h4 <= 1;
0 <= u5_t7_h5 <= 1;
0 <= u5_t7_h6 <= 1;
u5_t7_h2 + u5_t7_h3 + u5_t7_h4 + u5_t7_h5 + u5_t7_h6 = 1;
0 <= u5_t8_h13 <= 1;
0 <= u5_t8_h14 <= 1;
0 <= u5_t8_h15 <= 1;
0 <= u5_t8_h16 <= 1;
0 <= u5_t8_h17 <= 1;
u5_t8_h13 + u5_t8_h14 + u5_t8_h15 + u5_t8_h16 + u5_t8_h17 = 3;
0 <= u5_t9_h15 <= 1;
0 <= u5_t9_h16 <= 1;
0 <= u5_t9_h17 <= 1;
0 <= u5_t9_h18 <= 1;
0 <= u5_t9_h19 <= 1;
0 <= u5_t9_h20 <= 1;
0 <= u5_t9_h21 <= 1;
0 <= u5_t9_h22 <= 1;
0 <= u5_t9_h23 <= 1;
u5_t9_h15 + u5_t9_h16 + u5_t9_h17 + u5_t9_h18 + u5_t9_h19 + u5_t9_h20 + u5_t9_h21 + u5_t9_h22 + u5_t9_h23 = 1;
0 <= u5_t10_h17 <= 1;
0 <= u5_t10_h18 <= 1;
0 <= u5_t10_h19 <= 1;
0 <= u5_t10_h20 <= 1;
0 <= u5_t10_h21 <= 1;
0 <= u5_t10_h22 <= 1;
0 <= u5_t10_h23 <= 1;
u5_t10_h17 + u5_t10_h18 + u5_t10_h19 + u5_t10_h20 + u5_t10_h21 + u5_t10_h22 + u5_t10_h23 = 1;
